data;
param SP1:=2;
param SP2:=6;
param init1:=0;
param init2:=0;
param Grn1 :=0;
param Grn2 :=0;
param y          	:=	1	3	2	3.6	3	3	4	4	5	3	6	3.6	7	3	8	4
param red          	:=	1	1	2	3.1	3	1	4	4.3	5	1	6	3.1	7	1	8	4.3
param gmin      	:=	1	4	2	15	3	4	4	8	5	4	6	15	7	4	8	8
param gmax      	:=	1	16	2	49	3	29	4	43.7	5	34	6	31	7	37	8	43.7
